
===== New CPLEX run =====
Instance: /home/yorig/tuner/mpils-tests/instances/miplib/easy/lotsize.mps
Config: /scratch/yorig/mpils-results-grid-seconds-5-watchdog/easy/24proc/seed-5/4_lotsize_seed-5_20260504_011421/expansion/config_param_CPXPARAM_Emphasis_Memory_1_iter_4.prm
========================

Selected objective sense:  MINIMIZE
Selected objective  name:  R1921
Selected RHS        name:  B
Selected bound      name:  BOUND
Wall watchdog: enabled factor=1 grace=1 limit=6 seconds
Version identifier: 22.1.2.0 | 2024-11-26 | 0edbb82fd
CPXPARAM_Threads                                 8
CPXPARAM_Emphasis_Memory                         1
CPXPARAM_Parallel                                1
CPXPARAM_MIP_Cuts_Cliques                        2
CPXPARAM_Preprocessing_CoeffReduce               3
CPXPARAM_MIP_Cuts_Covers                         1
CPXPARAM_MIP_Strategy_SubAlgorithm               2
CPXPARAM_MIP_Cuts_FlowCovers                     2
CPXPARAM_MIP_Cuts_GUBCovers                      2
CPXPARAM_MIP_Limits_GomoryCand                   100
CPXPARAM_MIP_Cuts_PathCut                        2
CPXPARAM_MIP_Cuts_MIRCut                         2
CPXPARAM_MIP_Cuts_Disjunctive                    2
CPXPARAM_MIP_Limits_AggForCut                    10
CPXPARAM_Preprocessing_Symmetry                  2
CPXPARAM_Barrier_Ordering                        2
CPXPARAM_Preprocessing_Fill                      20
CPXPARAM_TimeLimit                               5
CPXPARAM_MIP_Limits_CutsFactor                   8
Tried aggregator 1 time.
MIP Presolve eliminated 595 rows and 0 columns.
MIP Presolve added 1190 rows and 0 columns.
MIP Presolve modified 10 coefficients.
Reduced MIP has 2515 rows, 2985 columns, and 7755 nonzeros.
Reduced MIP has 1195 binaries, 0 generals, 0 SOSs, and 0 indicators.
Presolve time = 0.00 sec. (4.57 ticks)
Probing fixed 0 vars, tightened 5487 bounds.
Probing time = 0.01 sec. (18.46 ticks)
Tried aggregator 2 times.
MIP Presolve modified 1206 coefficients.
Aggregator did 10 substitutions.
Reduced MIP has 2505 rows, 2975 columns, and 7735 nonzeros.
Reduced MIP has 1195 binaries, 0 generals, 0 SOSs, and 0 indicators.
Presolve time = 0.00 sec. (5.33 ticks)
Probing fixed 0 vars, tightened 2401 bounds.
Probing time = 0.00 sec. (6.49 ticks)
Clique table members: 190.
MIP emphasis: balance optimality and feasibility.
MIP search method: dynamic search.
Parallel mode: deterministic, using up to 8 threads.
Root relaxation solution time = 0.01 sec. (10.17 ticks)

        Nodes                                         Cuts/
   Node  Left     Objective  IInf  Best Integer    Best Bound    ItCnt     Gap

      0     0   348385.3466   471                 348385.3466     1432         
      0     0   591373.0472   436                   Cuts: 726     2654         
      0     0   830827.4628   694                   Cuts: 726     3635         
*     0+    0                       1.01740e+07   830827.4628            91.83%
*     0+    0                      7973370.0000   830827.4628            89.58%
      0     0   999306.2521   663  7973370.0000     Cuts: 726     4440   87.47%
      0     0  1108197.9418   689  7973370.0000     Cuts: 726     5210   86.10%
      0     0  1199829.7616   707  7973370.0000     Cuts: 726     6194   84.95%
Detecting symmetries...
*     0+    0                      2110383.0000  1199829.7616            43.15%
      0     0  1260387.2357   706  2110383.0000     Cuts: 726     7271   40.28%
      0     0  1305672.4312   712  2110383.0000     Cuts: 726     7979   38.13%
      0     0  1339137.7213   769  2110383.0000     Cuts: 726     8622   36.55%
      0     0  1364868.3593   767  2110383.0000     Cuts: 726     9248   35.33%
      0     0  1377242.3691   757  2110383.0000     Cuts: 726     9792   34.74%
      0     0  1390164.8556   771  2110383.0000     Cuts: 726    10441   34.13%
      0     0  1402185.4974   774  2110383.0000     Cuts: 726    11023   33.56%
      0     0  1410415.5157   817  2110383.0000     Cuts: 725    11598   33.17%
      0     0  1416797.7219   839  2110383.0000     Cuts: 726    12167   32.87%
      0     0  1421262.3597   848  2110383.0000     Cuts: 726    12625   32.65%
      0     0  1425036.4587   821  2110383.0000     Cuts: 606    13072   32.47%
      0     0  1427155.4288   853  2110383.0000     Cuts: 488    13404   32.37%
      0     0  1428357.1615   854  2110383.0000     Cuts: 339    13743   32.32%
      0     0  1429842.6365   844  2110383.0000     Cuts: 353    13988   32.25%
      0     0  1431274.8507   845  2110383.0000     Cuts: 259    14203   32.18%
      0     0  1432442.4531   845  2110383.0000     Cuts: 259    14406   32.12%
      0     0  1433792.7938   827  2110383.0000     Cuts: 232    14626   32.06%
      0     0  1434510.1566   838  2110383.0000     Cuts: 232    14792   32.03%
      0     0  1435527.6037   833  2110383.0000     Cuts: 304    15002   31.98%
      0     0  1436221.9075   829  2110383.0000     Cuts: 158    15190   31.94%
*     0+    0                      2100877.0000  1436221.9075            31.64%
      0     0  1436755.0802   845  2100877.0000     Cuts: 228    15321   31.61%
*     0+    0                      1928616.0000  1436755.0802            25.50%
      0     0  1437091.1486   834  1928616.0000     Cuts: 156    15439   25.49%
*     0+    0                      1809369.0000  1437091.1486            20.58%
      0     0  1437389.5877   848  1809369.0000     Cuts: 154    15537   20.56%
Advanced basis not built.

GUB cover cuts applied:  0
Clique cuts applied:  1
Cover cuts applied:  10
Implied bound cuts applied:  20
Flow cuts applied:  622
Mixed integer rounding cuts applied:  980
Flow path cuts applied:  12
Multi commodity flow cuts applied:  13
Gomory fractional cuts applied:  1
Disjunctive cuts applied:  0
Cone linearizations applied:  0

Root node processing (before b&c):
  Real time             =    5.00 sec. (7923.85 ticks)
Parallel b&c, 8 threads:
  Real time             =    0.00 sec. (0.00 ticks)
  Sync time (average)   =    0.00 sec.
  Wait time (average)   =    0.00 sec.
                          ------------
Total (root+branch&cut) =    5.00 sec. (7923.85 ticks)
Gap: 20.56%
Upper bound: 1.80937e+06
Lower bound: 1.43739e+06
Termination status: Normal
End of CPLEX run. Time: 5.0044 seconds
